NAME          ClpDefau
ROWS
 N  OBJROW
 L  R_168_0
 L  R_168_1
 L  R_168_2
 L  R_168_3
 L  R_168_4
 L  R_168_5
 L  R_168_6
 L  R_168_7
 L  R_168_8
 L  R_168_9
 L  R_168_10
 L  R_168_11
 L  R_168_12
 L  R_168_13
 L  R_168_14
 L  R_168_15
 L  R_168_16
 L  R_168_17
 L  R_168_18
 L  R_168_19
 L  R_168_20
 L  R_168_21
 L  R_168_22
 L  R_168_23
 L  R_168_24
 L  R_168_25
 L  R_168_26
 L  R_168_27
 L  R_168_28
 L  R_168_29
 L  R_168_30
 L  R_168_31
COLUMNS
    x_0       OBJROW     -1.           R_168_1   57.         
    x_0       R_168_2   5.             R_168_4   41.         
    x_0       R_168_6   68.            R_168_7   23.         
    x_0       R_168_8   4.             R_168_9   23.         
    x_0       R_168_10  66.            R_168_11  66.         
    x_0       R_168_12  24.            R_168_14  54.         
    x_0       R_168_15  98.            R_168_16  76.         
    x_0       R_168_17  58.            R_168_18  97.         
    x_0       R_168_19  95.            R_168_20  68.         
    x_0       R_168_21  36.            R_168_23  46.         
    x_0       R_168_24  59.            R_168_26  73.         
    x_0       R_168_27  72.            R_168_28  63.         
    x_0       R_168_29  42.         
    x_1       OBJROW     -2.           R_168_1   99.         
    x_1       R_168_3   91.            R_168_5   65.         
    x_1       R_168_6   76.            R_168_7   94.         
    x_1       R_168_8   66.            R_168_9   88.         
    x_1       R_168_10  10.            R_168_11  44.         
    x_1       R_168_12  25.            R_168_14  74.         
    x_1       R_168_15  35.            R_168_16  88.         
    x_1       R_168_18  67.            R_168_19  35.         
    x_1       R_168_20  27.            R_168_22  92.         
    x_1       R_168_23  8.             R_168_24  23.         
    x_1       R_168_25  4.             R_168_26  9.          
    x_1       R_168_27  94.            R_168_29  17.         
    x_1       R_168_31  24.         
    x_2       OBJROW     -2.           R_168_0   1.          
    x_2       R_168_1   6.             R_168_2   32.         
    x_2       R_168_3   5.             R_168_4   79.         
    x_2       R_168_5   96.            R_168_6   44.         
    x_2       R_168_7   40.            R_168_8   99.         
    x_2       R_168_9   6.             R_168_11  80.         
    x_2       R_168_12  61.            R_168_14  88.         
    x_2       R_168_15  14.            R_168_16  17.         
    x_2       R_168_17  100.           R_168_18  66.         
    x_2       R_168_19  44.            R_168_20  78.         
    x_2       R_168_22  90.            R_168_23  18.         
    x_2       R_168_24  33.            R_168_25  21.         
    x_2       R_168_26  59.            R_168_27  66.         
    x_2       R_168_29  5.             R_168_31  57.         
    x_3       OBJROW     -6.           R_168_0   11.         
    x_3       R_168_1   80.            R_168_2   80.         
    x_3       R_168_3   33.            R_168_4   36.         
    x_3       R_168_5   1.             R_168_6   50.         
    x_3       R_168_7   15.            R_168_8   12.         
    x_3       R_168_9   13.            R_168_10  97.         
    x_3       R_168_11  28.            R_168_12  86.         
    x_3       R_168_13  40.            R_168_14  49.         
    x_3       R_168_15  98.            R_168_17  56.         
    x_3       R_168_18  3.             R_168_19  7.          
    x_3       R_168_22  13.            R_168_23  62.         
    x_3       R_168_24  67.            R_168_26  47.         
    x_3       R_168_27  48.            R_168_28  88.         
    x_3       R_168_29  14.            R_168_30  100.        
    x_3       R_168_31  3.          
    x_4       OBJROW     -3.           R_168_1   82.         
    x_4       R_168_2   27.            R_168_4   1.          
    x_4       R_168_5   48.            R_168_6   93.         
    x_4       R_168_7   97.            R_168_8   15.         
    x_4       R_168_9   51.            R_168_10  18.         
    x_4       R_168_11  51.            R_168_13  16.         
    x_4       R_168_14  43.            R_168_15  28.         
    x_4       R_168_16  4.             R_168_17  61.         
    x_4       R_168_18  93.            R_168_19  38.         
    x_4       R_168_20  59.            R_168_21  48.         
    x_4       R_168_22  68.            R_168_24  94.         
    x_4       R_168_28  30.            R_168_29  77.         
    x_4       R_168_30  55.            R_168_31  90.         
    x_5       OBJROW     -5.           R_168_1   74.         
    x_5       R_168_2   46.            R_168_3   70.         
    x_5       R_168_4   54.            R_168_6   88.         
    x_5       R_168_8   17.            R_168_10  91.         
    x_5       R_168_11  88.            R_168_12  23.         
    x_5       R_168_13  15.            R_168_14  97.         
    x_5       R_168_15  43.            R_168_16  92.         
    x_5       R_168_17  22.            R_168_19  91.         
    x_5       R_168_20  46.            R_168_21  74.         
    x_5       R_168_22  60.            R_168_23  4.          
    x_5       R_168_25  95.            R_168_26  66.         
    x_5       R_168_27  36.            R_168_28  91.         
    x_5       R_168_29  53.            R_168_30  61.         
    x_5       R_168_31  71.         
    x_6       OBJROW     -5.           R_168_0   96.         
    x_6       R_168_2   93.            R_168_3   80.         
    x_6       R_168_4   86.            R_168_5   82.         
    x_6       R_168_7   68.            R_168_8   60.         
    x_6       R_168_9   13.            R_168_10  28.         
    x_6       R_168_11  78.            R_168_12  28.         
    x_6       R_168_14  72.            R_168_15  26.         
    x_6       R_168_16  76.            R_168_17  63.         
    x_6       R_168_19  79.            R_168_20  62.         
    x_6       R_168_21  73.            R_168_22  92.         
    x_6       R_168_23  98.            R_168_24  1.          
    x_6       R_168_26  86.            R_168_27  97.         
    x_6       R_168_28  87.            R_168_30  65.         
    x_6       R_168_31  11.         
    x_7       OBJROW     -10.          R_168_0   45.         
    x_7       R_168_1   97.            R_168_4   81.         
    x_7       R_168_5   93.            R_168_6   21.         
    x_7       R_168_7   60.            R_168_8   20.         
    x_7       R_168_9   72.            R_168_10  1.          
    x_7       R_168_11  69.            R_168_13  27.         
    x_7       R_168_15  84.            R_168_16  89.         
    x_7       R_168_17  39.            R_168_18  41.         
    x_7       R_168_19  83.            R_168_21  83.         
    x_7       R_168_22  12.            R_168_23  27.         
    x_7       R_168_24  68.            R_168_26  65.         
    x_7       R_168_27  40.            R_168_28  59.         
    x_7       R_168_29  67.            R_168_30  15.         
    x_7       R_168_31  49.         
    x_8       OBJROW     -4.           R_168_1   46.         
    x_8       R_168_2   59.            R_168_3   64.         
    x_8       R_168_4   38.            R_168_5   18.         
    x_8       R_168_7   82.            R_168_8   35.         
    x_8       R_168_9   13.            R_168_11  97.         
    x_8       R_168_12  48.            R_168_13  18.         
    x_8       R_168_14  30.            R_168_15  71.         
    x_8       R_168_16  52.            R_168_18  36.         
    x_8       R_168_21  89.            R_168_22  42.         
    x_8       R_168_23  97.            R_168_24  91.         
    x_8       R_168_26  92.            R_168_27  80.         
    x_8       R_168_28  10.            R_168_29  51.         
    x_8       R_168_30  34.         
    x_9       OBJROW     -10.          R_168_0   62.         
    x_9       R_168_1   24.            R_168_2   49.         
    x_9       R_168_3   4.             R_168_4   22.         
    x_9       R_168_5   94.            R_168_6   56.         
    x_9       R_168_7   42.            R_168_8   77.         
    x_9       R_168_9   37.            R_168_10  20.         
    x_9       R_168_11  26.            R_168_13  19.         
    x_9       R_168_14  43.            R_168_15  54.         
    x_9       R_168_16  12.            R_168_17  32.         
    x_9       R_168_18  94.            R_168_19  44.         
    x_9       R_168_21  79.            R_168_22  19.         
    x_9       R_168_23  9.             R_168_24  100.        
    x_9       R_168_25  42.            R_168_26  15.         
    x_9       R_168_27  99.            R_168_28  51.         
    x_9       R_168_29  7.             R_168_30  61.         
    x_9       R_168_31  41.         
    x_10      OBJROW     -1.           R_168_0   80.         
    x_10      R_168_1   76.            R_168_2   86.         
    x_10      R_168_6   53.            R_168_7   58.         
    x_10      R_168_8   14.            R_168_9   76.         
    x_10      R_168_10  88.            R_168_11  23.         
    x_10      R_168_12  40.            R_168_13  91.         
    x_10      R_168_14  14.            R_168_15  29.         
    x_10      R_168_16  19.            R_168_17  12.         
    x_10      R_168_18  84.            R_168_19  61.         
    x_10      R_168_20  62.            R_168_21  4.          
    x_10      R_168_22  65.            R_168_23  7.          
    x_10      R_168_24  1.             R_168_26  88.         
    x_10      R_168_27  31.            R_168_28  63.         
    x_10      R_168_29  70.            R_168_30  14.         
    x_10      R_168_31  7.          
    x_11      OBJROW     -10.          R_168_0   81.         
    x_11      R_168_1   80.            R_168_2   51.         
    x_11      R_168_4   65.            R_168_5   87.         
    x_11      R_168_6   14.            R_168_8   27.         
    x_11      R_168_9   26.            R_168_10  56.         
    x_11      R_168_11  17.            R_168_12  39.         
    x_11      R_168_14  61.            R_168_15  68.         
    x_11      R_168_16  36.            R_168_17  90.         
    x_11      R_168_18  71.            R_168_19  4.          
    x_11      R_168_20  97.            R_168_21  25.         
    x_11      R_168_22  6.             R_168_23  81.         
    x_11      R_168_24  34.            R_168_25  61.         
    x_11      R_168_26  95.            R_168_27  29.         
    x_11      R_168_29  5.             R_168_30  14.         
    x_11      R_168_31  89.         
    x_12      OBJROW     -3.           R_168_0   24.         
    x_12      R_168_1   12.            R_168_4   38.         
    x_12      R_168_6   42.            R_168_7   36.         
    x_12      R_168_9   9.             R_168_10  54.         
    x_12      R_168_11  5.             R_168_12  85.         
    x_12      R_168_14  94.            R_168_15  3.          
    x_12      R_168_16  43.            R_168_17  94.         
    x_12      R_168_18  68.            R_168_19  26.         
    x_12      R_168_20  17.            R_168_21  58.         
    x_12      R_168_24  79.            R_168_25  25.         
    x_12      R_168_26  57.            R_168_27  61.         
    x_12      R_168_29  10.            R_168_30  78.         
    x_12      R_168_31  61.         
    x_13      OBJROW     -7.           R_168_0   79.         
    x_13      R_168_1   74.            R_168_3   40.         
    x_13      R_168_5   39.            R_168_6   4.          
    x_13      R_168_7   41.            R_168_8   69.         
    x_13      R_168_9   93.            R_168_10  57.         
    x_13      R_168_11  61.            R_168_13  75.         
    x_13      R_168_14  28.            R_168_15  78.         
    x_13      R_168_16  93.            R_168_17  76.         
    x_13      R_168_18  36.            R_168_19  64.         
    x_13      R_168_20  31.            R_168_21  39.         
    x_13      R_168_24  80.            R_168_25  43.         
    x_13      R_168_26  90.            R_168_27  53.         
    x_13      R_168_28  28.            R_168_29  34.         
    x_13      R_168_30  18.         
    x_14      OBJROW     -7.           R_168_0   56.         
    x_14      R_168_1   59.            R_168_2   61.         
    x_14      R_168_4   31.            R_168_5   69.         
    x_14      R_168_6   12.            R_168_7   70.         
    x_14      R_168_8   7.             R_168_9   56.         
    x_14      R_168_10  66.            R_168_11  47.         
    x_14      R_168_12  67.            R_168_14  9.          
    x_14      R_168_15  95.            R_168_16  36.         
    x_14      R_168_17  62.            R_168_18  84.         
    x_14      R_168_19  42.            R_168_20  7.          
    x_14      R_168_21  83.            R_168_22  98.         
    x_14      R_168_23  72.            R_168_24  87.         
    x_14      R_168_25  56.            R_168_26  5.          
    x_14      R_168_27  85.            R_168_28  7.          
    x_14      R_168_30  44.            R_168_31  13.         
    x_15      OBJROW     -9.           R_168_0   14.         
    x_15      R_168_1   45.            R_168_2   82.         
    x_15      R_168_3   62.            R_168_5   20.         
    x_15      R_168_6   44.            R_168_7   82.         
    x_15      R_168_8   87.            R_168_10  7.          
    x_15      R_168_12  70.            R_168_13  99.         
    x_15      R_168_14  54.            R_168_15  24.         
    x_15      R_168_16  6.             R_168_17  98.         
    x_15      R_168_20  38.            R_168_21  6.          
    x_15      R_168_23  29.            R_168_24  47.         
    x_15      R_168_25  77.            R_168_27  71.         
    x_15      R_168_28  1.             R_168_29  11.         
    x_15      R_168_30  36.            R_168_31  29.         
RHS
    RHS       R_168_0   213.           R_168_1   698.        
    RHS       R_168_2   689.           R_168_3   700.        
    RHS       R_168_4   572.           R_168_5   597.        
    RHS       R_168_6   289.           R_168_7   318.        
    RHS       R_168_8   597.           R_168_9   292.        
    RHS       R_168_10  630.           R_168_11  541.        
    RHS       R_168_12  214.           R_168_13  745.        
    RHS       R_168_14  347.           R_168_15  688.        
    RHS       R_168_16  610.           R_168_17  607.        
    RHS       R_168_18  773.           R_168_19  823.        
    RHS       R_168_20  616.           R_168_21  326.        
    RHS       R_168_22  667.           R_168_23  768.        
    RHS       R_168_24  290.           R_168_25  519.        
    RHS       R_168_26  309.           R_168_27  183.        
    RHS       R_168_28  417.           R_168_29  351.        
    RHS       R_168_30  314.           R_168_31  813.        
BOUNDS
 UI BOUND     x_0       10.         
 UI BOUND     x_1       10.         
 UI BOUND     x_2       10.         
 UI BOUND     x_3       10.         
 UI BOUND     x_4       10.         
 UI BOUND     x_5       10.         
 UI BOUND     x_6       10.         
 UI BOUND     x_7       10.         
 UI BOUND     x_8       10.         
 UI BOUND     x_9       10.         
 UI BOUND     x_10      10.         
 UI BOUND     x_11      10.         
 UI BOUND     x_12      10.         
 UI BOUND     x_13      10.         
 UI BOUND     x_14      10.         
 UI BOUND     x_15      10.         
ENDATA
